200
1000
495
490
489
487
487
486
486
485
483
482
481
477
477
477
475
469
467
465
465
461
461
457
454
453
452
449
447
445
443
442
441
439
435
433
433
433
432
432
432
429
428
428
425
424
421
419
418
418
414
410
409
409
409
408
407
406
406
404
403
400
398
398
397
396
394
394
392
392
390
388
388
383
382
381
369
369
368
365
364
362
360
360
359
357
355
351
350
350
344
341
340
338
337
332
331
328
327
327
325
324
316
315
313
311
310
309
308
308
307
301
299
298
297
296
295
295
288
283
280
279
279
278
278
278
277
277
276
276
274
274
273
270
269
268
267
266
264
264
264
263
263
261
260
258
257
257
255
251
251
249
248
242
242
241
241
241
241
238
234
231
230
229
229
227
227
227
224
222
219
218
218
215
213
212
207
207
205
204
203
203
195
192
191
188
188
187
187
187
184
181
180
180
180
180
179
176
175
172
171
171
